(set-logic QF_S)
(declare-fun var0 () String)
(declare-fun var1 () String)
(declare-fun var2 () String)
(declare-fun var3 () Int)
(declare-fun var4 () String)
(declare-fun var5 () Int)
(declare-fun var6 () Int)
(assert (< (str.to.int var0) (str.indexof var1 var2 var3)))
(assert (> (str.indexof var4 "k!Q<" var5) (str.to.int var4)))
(assert (>= var6 62))
(assert (str.suffixof var2 var1))
(check-sat)